NAME: concorde1023
TYPE: TSP
COMMENT: Generated by CCutil_writetsplib
COMMENT: Write called for by Concorde GUI
DIMENSION: 1023
EDGE_WEIGHT_TYPE: EUC_2D
NODE_COORD_SECTION
1 301.000000 98.000000
2 302.000000 86.000000
3 303.000000 74.000000
4 311.000000 23.000000
5 294.000000 101.000000
6 271.000000 100.000000
7 89.000000 38.000000
8 83.000000 46.000000
9 314.000000 9.000000
10 238.000000 84.000000
11 229.000000 77.000000
12 230.000000 96.000000
13 230.000000 87.000000
14 302.000000 14.000000
15 307.000000 9.000000
16 287.000000 18.000000
17 302.000000 23.000000
18 311.000000 16.000000
19 238.000000 97.000000
20 298.000000 124.000000
21 296.000000 111.000000
22 307.000000 120.000000
23 304.000000 111.000000
24 285.000000 164.000000
25 297.000000 136.000000
26 306.000000 134.000000
27 284.000000 152.000000
28 274.000000 157.000000
29 126.000000 78.000000
30 178.000000 35.000000
31 185.000000 43.000000
32 125.000000 68.000000
33 140.000000 73.000000
34 278.000000 15.000000
35 205.000000 13.000000
36 214.000000 19.000000
37 186.000000 76.000000
38 185.000000 60.000000
39 186.000000 68.000000
40 184.000000 51.000000
41 174.000000 46.000000
42 178.000000 81.000000
43 281.000000 84.000000
44 280.000000 96.000000
45 294.000000 90.000000
46 272.000000 88.000000
47 295.000000 78.000000
48 259.000000 746.000000
49 104.000000 468.000000
50 109.000000 479.000000
51 120.000000 470.000000
52 106.000000 457.000000
53 106.000000 444.000000
54 125.000000 384.000000
55 125.000000 397.000000
56 82.000000 36.000000
57 105.000000 35.000000
58 96.000000 43.000000
59 106.000000 44.000000
60 119.000000 48.000000
61 113.000000 40.000000
62 99.000000 59.000000
63 116.000000 75.000000
64 112.000000 64.000000
65 92.000000 52.000000
66 118.000000 87.000000
67 101.000000 51.000000
68 111.000000 54.000000
69 117.000000 122.000000
70 84.000000 56.000000
71 130.000000 116.000000
72 118.000000 112.000000
73 125.000000 124.000000
74 297.000000 67.000000
75 305.000000 62.000000
76 221.000000 113.000000
77 217.000000 124.000000
78 230.000000 106.000000
79 246.000000 121.000000
80 256.000000 111.000000
81 259.000000 123.000000
82 241.000000 110.000000
83 238.000000 131.000000
84 232.000000 121.000000
85 251.000000 192.000000
86 241.000000 192.000000
87 279.000000 117.000000
88 289.000000 117.000000
89 278.000000 107.000000
90 267.000000 113.000000
91 258.000000 144.000000
92 247.000000 143.000000
93 251.000000 132.000000
94 263.000000 157.000000
95 249.000000 167.000000
96 252.000000 155.000000
97 284.000000 177.000000
98 230.000000 151.000000
99 221.000000 137.000000
100 235.000000 142.000000
101 240.000000 155.000000
102 232.000000 190.000000
103 240.000000 169.000000
104 244.000000 180.000000
105 277.000000 137.000000
106 285.000000 128.000000
107 271.000000 125.000000
108 265.000000 134.000000
109 286.000000 142.000000
110 270.000000 145.000000
111 135.000000 126.000000
112 130.000000 98.000000
113 141.000000 98.000000
114 131.000000 87.000000
115 118.000000 98.000000
116 125.000000 106.000000
117 137.000000 109.000000
118 208.000000 134.000000
119 135.000000 55.000000
120 123.000000 58.000000
121 128.000000 47.000000
122 134.000000 64.000000
123 138.000000 45.000000
124 143.000000 61.000000
125 146.000000 51.000000
126 164.000000 44.000000
127 155.000000 47.000000
128 207.000000 31.000000
129 215.000000 30.000000
130 208.000000 39.000000
131 207.000000 23.000000
132 186.000000 33.000000
133 185.000000 26.000000
134 234.000000 30.000000
135 226.000000 25.000000
136 234.000000 20.000000
137 208.000000 48.000000
138 163.000000 63.000000
139 165.000000 53.000000
140 174.000000 57.000000
141 155.000000 57.000000
142 177.000000 68.000000
143 170.000000 76.000000
144 150.000000 67.000000
145 214.000000 106.000000
146 148.000000 109.000000
147 155.000000 128.000000
148 176.000000 99.000000
149 187.000000 91.000000
150 178.000000 92.000000
151 186.000000 98.000000
152 186.000000 84.000000
153 215.000000 96.000000
154 211.000000 79.000000
155 215.000000 86.000000
156 213.000000 585.000000
157 228.000000 569.000000
158 194.000000 557.000000
159 201.000000 563.000000
160 202.000000 548.000000
161 228.000000 550.000000
162 221.000000 542.000000
163 219.000000 552.000000
164 223.000000 560.000000
165 252.000000 752.000000
166 237.000000 735.000000
167 263.000000 737.000000
168 316.000000 717.000000
169 233.000000 658.000000
170 241.000000 663.000000
171 222.000000 655.000000
172 228.000000 729.000000
173 235.000000 726.000000
174 129.000000 487.000000
175 137.000000 495.000000
176 140.000000 485.000000
177 132.000000 476.000000
178 121.000000 480.000000
179 128.000000 499.000000
180 132.000000 466.000000
181 142.000000 471.000000
182 122.000000 451.000000
183 113.000000 451.000000
184 120.000000 439.000000
185 131.000000 445.000000
186 129.000000 457.000000
187 117.000000 461.000000
188 135.000000 386.000000
189 273.000000 398.000000
190 267.000000 405.000000
191 276.000000 277.000000
192 278.000000 268.000000
193 186.000000 190.000000
194 276.000000 300.000000
195 234.000000 352.000000
196 235.000000 340.000000
197 137.000000 682.000000
198 183.000000 13.000000
199 185.000000 19.000000
200 145.000000 3.000000
201 121.000000 26.000000
202 120.000000 36.000000
203 128.000000 37.000000
204 111.000000 16.000000
205 112.000000 27.000000
206 121.000000 18.000000
207 122.000000 10.000000
208 96.000000 34.000000
209 118.000000 133.000000
210 157.000000 157.000000
211 231.000000 163.000000
212 233.000000 178.000000
213 186.000000 181.000000
214 187.000000 171.000000
215 187.000000 160.000000
216 304.000000 3.000000
217 289.000000 6.000000
218 313.000000 2.000000
219 274.000000 62.000000
220 236.000000 64.000000
221 236.000000 56.000000
222 283.000000 59.000000
223 237.000000 74.000000
224 274.000000 76.000000
225 282.000000 71.000000
226 299.000000 56.000000
227 301.000000 33.000000
228 308.000000 40.000000
229 310.000000 32.000000
230 307.000000 51.000000
231 272.000000 196.000000
232 284.000000 191.000000
233 284.000000 203.000000
234 265.000000 177.000000
235 273.000000 184.000000
236 273.000000 169.000000
237 259.000000 167.000000
238 254.000000 179.000000
239 262.000000 188.000000
240 132.000000 146.000000
241 146.000000 131.000000
242 128.000000 135.000000
243 119.000000 143.000000
244 120.000000 153.000000
245 147.000000 160.000000
246 136.000000 156.000000
247 157.000000 143.000000
248 168.000000 36.000000
249 137.000000 36.000000
250 217.000000 62.000000
251 209.000000 58.000000
252 210.000000 68.000000
253 228.000000 67.000000
254 218.000000 73.000000
255 225.000000 45.000000
256 216.000000 51.000000
257 215.000000 41.000000
258 226.000000 36.000000
259 231.000000 48.000000
260 228.000000 57.000000
261 235.000000 38.000000
262 166.000000 116.000000
263 186.000000 113.000000
264 188.000000 105.000000
265 179.000000 106.000000
266 177.000000 113.000000
267 185.000000 120.000000
268 206.000000 116.000000
269 159.000000 98.000000
270 168.000000 96.000000
271 165.000000 106.000000
272 159.000000 110.000000
273 151.000000 98.000000
274 171.000000 88.000000
275 156.000000 77.000000
276 228.000000 649.000000
277 205.000000 576.000000
278 232.000000 578.000000
279 193.000000 542.000000
280 235.000000 708.000000
281 240.000000 700.000000
282 244.000000 710.000000
283 240.000000 718.000000
284 230.000000 718.000000
285 250.000000 702.000000
286 150.000000 689.000000
287 221.000000 701.000000
288 230.000000 702.000000
289 250.000000 730.000000
290 258.000000 731.000000
291 253.000000 740.000000
292 245.000000 742.000000
293 243.000000 729.000000
294 249.000000 720.000000
295 266.000000 728.000000
296 233.000000 680.000000
297 232.000000 668.000000
298 233.000000 693.000000
299 181.000000 404.000000
300 284.000000 261.000000
301 268.000000 267.000000
302 186.000000 276.000000
303 179.000000 270.000000
304 246.000000 348.000000
305 275.000000 288.000000
306 267.000000 299.000000
307 243.000000 289.000000
308 261.000000 397.000000
309 244.000000 360.000000
310 233.000000 364.000000
311 244.000000 385.000000
312 251.000000 395.000000
313 234.000000 390.000000
314 234.000000 378.000000
315 243.000000 372.000000
316 142.000000 726.000000
317 133.000000 728.000000
318 135.000000 717.000000
319 134.000000 693.000000
320 122.000000 2.000000
321 133.000000 4.000000
322 111.000000 5.000000
323 185.000000 8.000000
324 205.000000 4.000000
325 214.000000 7.000000
326 158.000000 3.000000
327 152.000000 7.000000
328 127.000000 161.000000
329 131.000000 171.000000
330 120.000000 174.000000
331 124.000000 191.000000
332 131.000000 256.000000
333 123.000000 265.000000
334 121.000000 253.000000
335 131.000000 289.000000
336 138.000000 294.000000
337 132.000000 278.000000
338 132.000000 302.000000
339 170.000000 252.000000
340 169.000000 272.000000
341 178.000000 259.000000
342 148.000000 271.000000
343 134.000000 266.000000
344 143.000000 281.000000
345 160.000000 260.000000
346 159.000000 272.000000
347 153.000000 282.000000
348 160.000000 250.000000
349 149.000000 254.000000
350 140.000000 188.000000
351 148.000000 184.000000
352 132.000000 191.000000
353 131.000000 181.000000
354 169.000000 175.000000
355 176.000000 186.000000
356 168.000000 189.000000
357 178.000000 175.000000
358 158.000000 185.000000
359 156.000000 169.000000
360 168.000000 161.000000
361 178.000000 165.000000
362 280.000000 40.000000
363 237.000000 47.000000
364 277.000000 27.000000
365 279.000000 50.000000
366 286.000000 32.000000
367 300.000000 45.000000
368 275.000000 408.000000
369 275.000000 390.000000
370 273.000000 220.000000
371 272.000000 208.000000
372 284.000000 216.000000
373 283.000000 228.000000
374 259.000000 201.000000
375 262.000000 212.000000
376 251.000000 267.000000
377 241.000000 277.000000
378 187.000000 150.000000
379 178.000000 155.000000
380 170.000000 150.000000
381 157.000000 36.000000
382 147.000000 39.000000
383 137.000000 20.000000
384 142.000000 29.000000
385 130.000000 26.000000
386 145.000000 20.000000
387 130.000000 14.000000
388 141.000000 11.000000
389 233.000000 4.000000
390 234.000000 12.000000
391 226.000000 14.000000
392 225.000000 4.000000
393 279.000000 5.000000
394 178.000000 132.000000
395 175.000000 123.000000
396 186.000000 128.000000
397 186.000000 138.000000
398 171.000000 139.000000
399 166.000000 128.000000
400 179.000000 145.000000
401 174.000000 591.000000
402 165.000000 602.000000
403 203.000000 592.000000
404 203.000000 584.000000
405 212.000000 599.000000
406 226.000000 595.000000
407 244.000000 558.000000
408 233.000000 560.000000
409 238.000000 569.000000
410 265.000000 553.000000
411 256.000000 567.000000
412 247.000000 567.000000
413 252.000000 576.000000
414 255.000000 557.000000
415 276.000000 558.000000
416 265.000000 563.000000
417 189.000000 550.000000
418 134.000000 506.000000
419 129.000000 522.000000
420 128.000000 512.000000
421 272.000000 477.000000
422 275.000000 487.000000
423 285.000000 524.000000
424 288.000000 532.000000
425 258.000000 493.000000
426 267.000000 490.000000
427 273.000000 638.000000
428 254.000000 711.000000
429 258.000000 721.000000
430 268.000000 720.000000
431 254.000000 693.000000
432 162.000000 679.000000
433 186.000000 737.000000
434 246.000000 681.000000
435 239.000000 673.000000
436 247.000000 670.000000
437 238.000000 686.000000
438 254.000000 685.000000
439 245.000000 692.000000
440 263.000000 673.000000
441 254.000000 676.000000
442 139.000000 597.000000
443 131.000000 591.000000
444 132.000000 605.000000
445 148.000000 603.000000
446 219.000000 647.000000
447 140.000000 611.000000
448 134.000000 672.000000
449 150.000000 678.000000
450 120.000000 229.000000
451 121.000000 241.000000
452 149.000000 483.000000
453 161.000000 392.000000
454 213.000000 493.000000
455 149.000000 393.000000
456 135.000000 399.000000
457 131.000000 434.000000
458 123.000000 429.000000
459 126.000000 410.000000
460 118.000000 421.000000
461 169.000000 418.000000
462 171.000000 410.000000
463 162.000000 424.000000
464 180.000000 416.000000
465 272.000000 382.000000
466 252.000000 378.000000
467 256.000000 387.000000
468 266.000000 389.000000
469 254.000000 357.000000
470 274.000000 357.000000
471 283.000000 251.000000
472 283.000000 239.000000
473 272.000000 232.000000
474 172.000000 299.000000
475 162.000000 283.000000
476 176.000000 281.000000
477 178.000000 248.000000
478 168.000000 242.000000
479 261.000000 350.000000
480 274.000000 349.000000
481 256.000000 302.000000
482 243.000000 301.000000
483 234.000000 312.000000
484 257.000000 283.000000
485 264.000000 290.000000
486 268.000000 279.000000
487 250.000000 278.000000
488 260.000000 272.000000
489 252.000000 292.000000
490 169.000000 721.000000
491 163.000000 711.000000
492 148.000000 705.000000
493 157.000000 701.000000
494 143.000000 697.000000
495 154.000000 712.000000
496 143.000000 714.000000
497 136.000000 705.000000
498 176.000000 4.000000
499 184.000000 2.000000
500 167.000000 4.000000
501 151.000000 15.000000
502 152.000000 28.000000
503 120.000000 207.000000
504 121.000000 217.000000
505 129.000000 201.000000
506 119.000000 184.000000
507 118.000000 163.000000
508 119.000000 197.000000
509 179.000000 222.000000
510 246.000000 204.000000
511 234.000000 202.000000
512 187.000000 198.000000
513 136.000000 236.000000
514 130.000000 246.000000
515 142.000000 247.000000
516 128.000000 234.000000
517 154.000000 243.000000
518 131.000000 211.000000
519 130.000000 223.000000
520 139.000000 217.000000
521 178.000000 213.000000
522 185.000000 207.000000
523 252.000000 213.000000
524 262.000000 223.000000
525 198.000000 571.000000
526 196.000000 580.000000
527 188.000000 583.000000
528 138.000000 586.000000
529 150.000000 592.000000
530 164.000000 589.000000
531 185.000000 591.000000
532 195.000000 590.000000
533 214.000000 637.000000
534 234.000000 615.000000
535 273.000000 578.000000
536 273.000000 569.000000
537 263.000000 574.000000
538 273.000000 587.000000
539 281.000000 549.000000
540 186.000000 560.000000
541 189.000000 574.000000
542 191.000000 565.000000
543 149.000000 514.000000
544 138.000000 516.000000
545 142.000000 503.000000
546 151.000000 530.000000
547 141.000000 527.000000
548 131.000000 579.000000
549 257.000000 406.000000
550 189.000000 406.000000
551 273.000000 467.000000
552 211.000000 476.000000
553 218.000000 483.000000
554 234.000000 465.000000
555 235.000000 453.000000
556 245.000000 446.000000
557 288.000000 514.000000
558 292.000000 505.000000
559 236.000000 475.000000
560 220.000000 534.000000
561 271.000000 544.000000
562 273.000000 526.000000
563 277.000000 535.000000
564 238.000000 550.000000
565 190.000000 517.000000
566 162.000000 499.000000
567 168.000000 514.000000
568 159.000000 509.000000
569 151.000000 499.000000
570 273.000000 597.000000
571 286.000000 541.000000
572 301.000000 689.000000
573 278.000000 658.000000
574 273.000000 648.000000
575 277.000000 668.000000
576 263.000000 712.000000
577 260.000000 702.000000
578 263.000000 682.000000
579 271.000000 676.000000
580 308.000000 701.000000
581 300.000000 697.000000
582 311.000000 690.000000
583 316.000000 703.000000
584 308.000000 710.000000
585 229.000000 632.000000
586 234.000000 624.000000
587 213.000000 658.000000
588 210.000000 649.000000
589 170.000000 656.000000
590 176.000000 647.000000
591 167.000000 665.000000
592 180.000000 601.000000
593 135.000000 661.000000
594 145.000000 668.000000
595 168.000000 611.000000
596 176.000000 619.000000
597 132.000000 619.000000
598 122.000000 275.000000
599 151.000000 473.000000
600 168.000000 479.000000
601 159.000000 486.000000
602 171.000000 487.000000
603 159.000000 476.000000
604 179.000000 313.000000
605 179.000000 303.000000
606 188.000000 307.000000
607 171.000000 309.000000
608 161.000000 299.000000
609 151.000000 300.000000
610 155.000000 434.000000
611 141.000000 459.000000
612 140.000000 447.000000
613 159.000000 441.000000
614 150.000000 448.000000
615 179.000000 435.000000
616 171.000000 442.000000
617 167.000000 434.000000
618 175.000000 424.000000
619 181.000000 500.000000
620 172.000000 499.000000
621 183.000000 511.000000
622 191.000000 506.000000
623 190.000000 464.000000
624 173.000000 471.000000
625 223.000000 493.000000
626 229.000000 484.000000
627 160.000000 411.000000
628 160.000000 401.000000
629 146.000000 403.000000
630 142.000000 419.000000
631 140.000000 433.000000
632 151.000000 426.000000
633 131.000000 421.000000
634 137.000000 410.000000
635 154.000000 418.000000
636 149.000000 410.000000
637 265.000000 371.000000
638 262.000000 380.000000
639 254.000000 368.000000
640 264.000000 361.000000
641 274.000000 375.000000
642 275.000000 366.000000
643 268.000000 251.000000
644 274.000000 243.000000
645 274.000000 257.000000
646 261.000000 261.000000
647 188.000000 290.000000
648 180.000000 292.000000
649 187.000000 283.000000
650 188.000000 298.000000
651 233.000000 284.000000
652 233.000000 298.000000
653 177.000000 231.000000
654 180.000000 239.000000
655 188.000000 245.000000
656 274.000000 340.000000
657 275.000000 331.000000
658 249.000000 310.000000
659 159.000000 731.000000
660 160.000000 721.000000
661 167.000000 732.000000
662 150.000000 730.000000
663 176.000000 736.000000
664 151.000000 721.000000
665 223.000000 713.000000
666 222.000000 723.000000
667 204.000000 724.000000
668 200.000000 736.000000
669 206.000000 733.000000
670 194.000000 737.000000
671 178.000000 725.000000
672 189.000000 729.000000
673 196.000000 725.000000
674 167.000000 20.000000
675 162.000000 28.000000
676 171.000000 28.000000
677 158.000000 20.000000
678 178.000000 24.000000
679 174.000000 13.000000
680 162.000000 11.000000
681 141.000000 200.000000
682 149.000000 192.000000
683 159.000000 233.000000
684 148.000000 224.000000
685 231.000000 258.000000
686 241.000000 265.000000
687 232.000000 271.000000
688 188.000000 269.000000
689 187.000000 261.000000
690 187.000000 253.000000
691 273.000000 613.000000
692 274.000000 605.000000
693 257.000000 608.000000
694 266.000000 605.000000
695 264.000000 615.000000
696 266.000000 625.000000
697 249.000000 661.000000
698 256.000000 667.000000
699 266.000000 666.000000
700 270.000000 658.000000
701 251.000000 624.000000
702 243.000000 620.000000
703 253.000000 616.000000
704 259.000000 621.000000
705 265.000000 634.000000
706 193.000000 607.000000
707 201.000000 607.000000
708 199.000000 599.000000
709 189.000000 599.000000
710 186.000000 611.000000
711 202.000000 622.000000
712 199.000000 615.000000
713 205.000000 632.000000
714 217.000000 622.000000
715 214.000000 610.000000
716 202.000000 640.000000
717 235.000000 587.000000
718 243.000000 580.000000
719 257.000000 591.000000
720 260.000000 599.000000
721 266.000000 593.000000
722 252.000000 584.000000
723 263.000000 583.000000
724 243.000000 601.000000
725 234.000000 605.000000
726 241.000000 611.000000
727 236.000000 596.000000
728 249.000000 609.000000
729 252.000000 599.000000
730 245.000000 591.000000
731 182.000000 578.000000
732 176.000000 583.000000
733 160.000000 535.000000
734 130.000000 543.000000
735 139.000000 537.000000
736 130.000000 532.000000
737 148.000000 543.000000
738 234.000000 428.000000
739 242.000000 435.000000
740 234.000000 442.000000
741 190.000000 439.000000
742 188.000000 428.000000
743 190.000000 418.000000
744 242.000000 411.000000
745 234.000000 416.000000
746 249.000000 404.000000
747 234.000000 403.000000
748 242.000000 396.000000
749 244.000000 458.000000
750 264.000000 451.000000
751 253.000000 453.000000
752 258.000000 443.000000
753 273.000000 445.000000
754 266.000000 461.000000
755 274.000000 455.000000
756 253.000000 476.000000
757 242.000000 483.000000
758 245.000000 469.000000
759 252.000000 486.000000
760 255.000000 463.000000
761 263.000000 471.000000
762 262.000000 481.000000
763 230.000000 518.000000
764 216.000000 503.000000
765 220.000000 524.000000
766 265.000000 533.000000
767 260.000000 544.000000
768 250.000000 548.000000
769 269.000000 510.000000
770 264.000000 521.000000
771 263.000000 502.000000
772 277.000000 517.000000
773 281.000000 506.000000
774 274.000000 498.000000
775 253.000000 501.000000
776 245.000000 493.000000
777 235.000000 496.000000
778 228.000000 505.000000
779 238.000000 512.000000
780 256.000000 511.000000
781 244.000000 505.000000
782 179.000000 531.000000
783 164.000000 526.000000
784 178.000000 521.000000
785 183.000000 540.000000
786 189.000000 525.000000
787 190.000000 534.000000
788 297.000000 671.000000
789 308.000000 680.000000
790 273.000000 621.000000
791 273.000000 630.000000
792 286.000000 662.000000
793 288.000000 676.000000
794 274.000000 714.000000
795 300.000000 707.000000
796 280.000000 679.000000
797 292.000000 683.000000
798 269.000000 704.000000
799 264.000000 692.000000
800 271.000000 686.000000
801 192.000000 657.000000
802 202.000000 658.000000
803 200.000000 649.000000
804 192.000000 646.000000
805 185.000000 651.000000
806 197.000000 665.000000
807 181.000000 660.000000
808 189.000000 630.000000
809 194.000000 638.000000
810 184.000000 640.000000
811 182.000000 629.000000
812 198.000000 630.000000
813 194.000000 622.000000
814 186.000000 619.000000
815 145.000000 622.000000
816 155.000000 611.000000
817 165.000000 629.000000
818 169.000000 637.000000
819 133.000000 649.000000
820 126.000000 638.000000
821 136.000000 631.000000
822 109.000000 432.000000
823 123.000000 297.000000
824 122.000000 286.000000
825 162.000000 459.000000
826 163.000000 468.000000
827 170.000000 460.000000
828 162.000000 450.000000
829 153.000000 456.000000
830 152.000000 464.000000
831 136.000000 374.000000
832 151.000000 381.000000
833 188.000000 324.000000
834 180.000000 324.000000
835 188.000000 316.000000
836 187.000000 333.000000
837 234.000000 326.000000
838 159.000000 312.000000
839 158.000000 370.000000
840 181.000000 452.000000
841 178.000000 463.000000
842 172.000000 451.000000
843 185.000000 459.000000
844 182.000000 444.000000
845 190.000000 451.000000
846 190.000000 496.000000
847 205.000000 487.000000
848 202.000000 476.000000
849 186.000000 480.000000
850 183.000000 471.000000
851 178.000000 479.000000
852 193.000000 474.000000
853 193.000000 486.000000
854 182.000000 489.000000
855 275.000000 321.000000
856 263.000000 309.000000
857 274.000000 311.000000
858 256.000000 329.000000
859 244.000000 320.000000
860 244.000000 333.000000
861 255.000000 318.000000
862 253.000000 341.000000
863 265.000000 320.000000
864 266.000000 330.000000
865 264.000000 340.000000
866 215.000000 694.000000
867 225.000000 691.000000
868 224.000000 675.000000
869 211.000000 667.000000
870 180.000000 671.000000
871 188.000000 667.000000
872 175.000000 695.000000
873 169.000000 705.000000
874 165.000000 693.000000
875 173.000000 680.000000
876 205.000000 713.000000
877 186.000000 711.000000
878 176.000000 714.000000
879 180.000000 703.000000
880 186.000000 720.000000
881 195.000000 715.000000
882 151.000000 200.000000
883 159.000000 195.000000
884 176.000000 198.000000
885 161.000000 215.000000
886 170.000000 209.000000
887 170.000000 221.000000
888 157.000000 223.000000
889 160.000000 204.000000
890 151.000000 215.000000
891 232.000000 227.000000
892 233.000000 213.000000
893 242.000000 219.000000
894 231.000000 243.000000
895 188.000000 235.000000
896 187.000000 226.000000
897 187.000000 216.000000
898 252.000000 224.000000
899 262.000000 233.000000
900 241.000000 232.000000
901 259.000000 658.000000
902 265.000000 651.000000
903 265.000000 642.000000
904 257.000000 630.000000
905 245.000000 629.000000
906 178.000000 546.000000
907 170.000000 540.000000
908 154.000000 584.000000
909 141.000000 577.000000
910 137.000000 560.000000
911 147.000000 554.000000
912 143.000000 567.000000
913 132.000000 569.000000
914 139.000000 548.000000
915 130.000000 553.000000
916 123.000000 563.000000
917 273.000000 435.000000
918 275.000000 426.000000
919 274.000000 417.000000
920 243.000000 531.000000
921 253.000000 536.000000
922 243.000000 541.000000
923 231.000000 529.000000
924 239.000000 522.000000
925 254.000000 526.000000
926 232.000000 539.000000
927 248.000000 518.000000
928 283.000000 699.000000
929 291.000000 692.000000
930 292.000000 701.000000
931 282.000000 689.000000
932 280.000000 707.000000
933 273.000000 696.000000
934 150.000000 644.000000
935 139.000000 641.000000
936 145.000000 654.000000
937 154.000000 632.000000
938 163.000000 649.000000
939 155.000000 658.000000
940 125.000000 372.000000
941 188.000000 342.000000
942 189.000000 359.000000
943 178.000000 382.000000
944 187.000000 370.000000
945 188.000000 381.000000
946 165.000000 381.000000
947 175.000000 393.000000
948 187.000000 393.000000
949 137.000000 324.000000
950 125.000000 327.000000
951 132.000000 313.000000
952 148.000000 311.000000
953 137.000000 351.000000
954 129.000000 361.000000
955 125.000000 349.000000
956 134.000000 337.000000
957 147.000000 365.000000
958 175.000000 334.000000
959 149.000000 339.000000
960 165.000000 327.000000
961 153.000000 327.000000
962 213.000000 684.000000
963 202.000000 672.000000
964 192.000000 685.000000
965 185.000000 692.000000
966 185.000000 679.000000
967 194.000000 676.000000
968 202.000000 683.000000
969 202.000000 700.000000
970 190.000000 702.000000
971 196.000000 693.000000
972 198.000000 707.000000
973 206.000000 692.000000
974 211.000000 704.000000
975 251.000000 244.000000
976 258.000000 251.000000
977 263.000000 242.000000
978 251.000000 234.000000
979 241.000000 243.000000
980 249.000000 256.000000
981 240.000000 253.000000
982 232.000000 640.000000
983 238.000000 633.000000
984 150.000000 574.000000
985 161.000000 581.000000
986 155.000000 566.000000
987 169.000000 581.000000
988 256.000000 424.000000
989 252.000000 415.000000
990 263.000000 415.000000
991 266.000000 424.000000
992 251.000000 434.000000
993 244.000000 423.000000
994 263.000000 434.000000
995 174.000000 355.000000
996 186.000000 350.000000
997 180.000000 361.000000
998 178.000000 342.000000
999 175.000000 368.000000
1000 165.000000 358.000000
1001 160.000000 339.000000
1002 156.000000 353.000000
1003 248.000000 646.000000
1004 244.000000 654.000000
1005 237.000000 650.000000
1006 241.000000 642.000000
1007 252.000000 653.000000
1008 258.000000 647.000000
1009 248.000000 636.000000
1010 256.000000 638.000000
1011 162.000000 548.000000
1012 155.000000 557.000000
1013 172.000000 565.000000
1014 175.000000 574.000000
1015 182.000000 568.000000
1016 163.000000 574.000000
1017 164.000000 564.000000
1018 180.000000 555.000000
1019 173.000000 555.000000
1020 165.000000 556.000000
1021 123.000000 317.000000
1022 123.000000 307.000000
1023 124.000000 338.000000
